p cnf 100 20
x -1 3 -4 -5 -6 10 -11 12 -13 14 -17 -20 24 28 32 34 37 -40 -42 -46 48 49 50 -52 -53 -56 -59 60 62 63 -66 67 69 73 76 78 79 80 -81 -84 87 -89 -90 97 -98 -99 100 0
x 1 3 4 -5 -7 8 -9 -11 -12 13 14 15 16 20 -22 -27 28 29 -32 36 -37 40 -41 42 -43 -48 -49 -51 53 55 -57 -58 59 62 64 -65 69 -73 76 77 -79 81 -82 83 84 86 87 -89 91 93 -94 -98 99 0
x 2 6 7 8 -9 12 17 18 19 -20 -21 22 -23 24 -28 -29 30 -33 -35 42 -43 44 -45 -46 52 55 56 -57 -58 -62 -63 64 -65 66 -68 -69 71 -72 74 75 -79 -80 81 -84 85 87 -91 -93 -95 -96 -97 99 0
x -2 3 -11 -12 15 17 -20 21 24 -25 -27 -29 30 31 -34 35 37 44 45 -46 -49 -50 52 53 55 57 58 -59 -60 -61 -64 -66 67 -70 71 76 -77 78 81 82 -85 -88 89 -90 91 -94 -95 98 99 0
x 1 4 8 -9 -12 -13 -15 -16 19 -20 -23 -24 25 26 -29 -30 31 -32 -33 -34 35 -36 -37 39 -42 43 44 45 -46 -47 -48 -49 51 -52 54 58 60 -63 64 65 66 68 70 -71 -75 -78 80 83 -84 86 -89 90 93 96 0
x 1 -2 -3 5 6 -7 -8 9 10 -11 -12 -14 18 20 21 -22 -23 -27 31 -32 34 36 41 43 -44 47 -49 -50 52 -53 -55 -58 60 62 63 -65 66 68 69 70 71 -72 73 75 -76 77 -78 -79 -80 82 83 84 87 -88 89 -91 92 -94 -98 0
x -1 -2 6 7 -8 9 -12 13 15 18 20 24 26 -27 -28 29 37 -38 -39 -41 -42 -45 -47 -48 -52 -56 58 -59 61 62 63 65 -66 69 74 -76 -81 82 83 -85 90 -93 96 97 98 -99 0
x 1 3 -4 6 -8 9 -10 -11 13 -14 18 19 -22 25 -26 -27 29 30 31 33 34 36 37 -41 -42 47 48 -50 53 -55 -58 60 61 -62 63 -67 -69 70 71 73 -74 -75 76 78 81 82 -84 85 86 -87 89 -90 91 94 -99 0
x 1 3 -4 -6 8 9 10 12 -13 16 -18 -21 -23 -25 26 27 28 -29 -30 35 37 38 40 43 44 53 -55 58 59 -60 -63 64 -65 -67 68 69 70 71 -72 -74 75 -77 78 -81 -82 -83 -84 85 87 90 -91 -92 93 -94 -95 97 -99 0
x -4 5 -7 8 -10 12 14 -16 -17 -18 19 -20 21 -22 23 24 -26 27 29 -31 34 40 -41 46 -47 51 56 -57 59 -61 -62 -65 67 69 -73 78 -82 83 -84 -85 87 -95 -97 98 -99 0
x -1 5 10 11 -12 -16 17 -18 -20 21 -22 23 24 -25 -27 28 29 -30 -33 -34 35 -36 37 38 -39 40 44 -47 -49 -51 53 54 -56 57 -58 -59 62 64 65 -71 -74 78 81 82 85 88 -89 90 91 92 -97 -98 0
x 4 5 -6 -11 14 -15 -17 18 20 21 -23 26 -30 -32 -34 -40 41 42 -47 48 -50 52 -53 -54 -57 -59 60 61 -62 -63 65 -66 -67 -72 74 -75 76 78 -79 -80 -81 83 -84 85 87 -88 -93 94 97 -98 0
x 1 2 5 8 10 -11 12 -13 -16 18 -19 23 -24 -28 -29 -30 -32 33 35 36 -37 39 41 -43 -44 -46 48 -50 -51 52 -55 -57 -59 60 -62 -63 -68 -69 70 71 -72 73 -77 -78 -79 -81 -82 -84 -85 -90 -91 -94 97 -99 -100 0
x 3 4 6 8 -10 12 15 16 -19 -24 25 26 28 -33 35 -37 40 41 -45 46 47 48 50 -51 52 -55 -56 -58 -59 63 -64 -67 -70 -71 -72 73 -74 76 -78 -79 80 -82 -83 -89 -90 92 -94 -96 0
x -2 -4 5 -7 -8 -10 11 14 15 21 -23 24 -25 -30 31 33 -34 35 37 -44 -49 52 -54 62 67 -68 -71 72 73 -74 -77 -78 -79 80 -81 -83 84 -86 -89 -90 -91 -92 94 95 -96 97 -99 100 0
x 1 -2 5 7 -8 9 -14 -15 17 -20 -21 24 30 34 -35 -36 -38 39 45 -48 49 -50 -51 -52 53 -54 -57 58 60 -62 -65 67 68 -69 -72 75 -80 81 82 -86 -87 89 -92 94 95 -96 97 0
x -4 -5 -9 -11 -12 -13 -14 -16 17 19 -20 -21 -22 -29 31 -32 -41 42 -45 46 48 49 -50 51 -52 -53 -54 55 56 57 58 -60 61 62 -64 65 -66 67 -68 69 -70 -72 73 74 -76 -78 79 80 83 84 -86 -89 90 -92 93 94 -95 96 97 -98 -100 0
x 1 -3 6 7 -10 11 14 -17 -19 -20 21 24 27 28 29 32 33 34 -35 -36 -37 38 -40 -41 -42 -43 44 45 -48 -49 -50 51 53 54 -57 -58 61 -62 -63 -64 65 -67 68 70 -71 73 -74 -76 -79 82 -84 -85 88 -89 -90 -94 -95 99 100 0
x 3 -4 5 -8 -9 10 -11 -12 -15 16 -17 20 21 23 25 -30 31 -32 34 -36 -38 47 -49 -50 -51 -52 53 54 55 56 -62 -63 -67 68 -69 73 -76 -77 -85 -86 87 -88 91 98 99 0
x -1 -2 8 -12 -13 -16 18 -20 21 22 24 25 -26 -30 -32 -33 36 37 -38 44 47 50 -51 52 -54 -57 -58 -64 -66 67 -68 69 70 -71 -72 -75 -77 -80 81 -85 88 -89 -91 92 94 98 99 100 0
g -40